feasible solution found by trivial heuristic after 0.1 seconds, objective value 0.000000e+00
presolving:
(round 1, fast)       4059 del vars, 8118 del conss, 0 add conss, 129 chg bounds, 3930 chg sides, 0 chg coeffs, 0 upgd conss, 0 impls, 17325 clqs
(round 2, fast)       4188 del vars, 8118 del conss, 0 add conss, 129 chg bounds, 3930 chg sides, 0 chg coeffs, 0 upgd conss, 0 impls, 17325 clqs
   (0.2s) running MILP presolver
   (0.2s) MILP presolver found nothing
(round 3, exhaustive) 4188 del vars, 8118 del conss, 0 add conss, 129 chg bounds, 3930 chg sides, 0 chg coeffs, 17325 upgd conss, 0 impls, 17325 clqs
   (0.4s) probing: 51/129 (39.5%) - 0 fixings, 0 aggregations, 0 implications, 0 bound changes
   (0.4s) probing aborted: 50/50 successive totally useless probings
   (0.5s) symmetry computation started: requiring (bin +, int -, cont +), (fixed: bin -, int +, cont -)
   (0.5s) no symmetry present
presolving (4 rounds: 4 fast, 2 medium, 2 exhaustive):
 4188 deleted vars, 8118 deleted constraints, 0 added constraints, 129 tightened bounds, 0 added holes, 3930 changed sides, 0 changed coefficients
 0 implications, 17325 cliques
presolved problem has 129 variables (129 bin, 0 int, 0 impl, 0 cont) and 17325 constraints
  17325 constraints of type <setppc>
Presolving Time: 0.49

 time | node  | left  |LP iter|LP it/n|mem/heur|mdpt |vars |cons |rows |cuts |sepa|confs|strbr|  dualbound   | primalbound  |  gap   | compl. 
t 0.5s|     1 |     0 |     0 |     - | trivial|   0 | 129 |  17k|   0 |   0 |  0 |   0 |   0 | 6.390998e+04 | 1.794298e+04 | 256.18%| unknown
p 0.6s|     1 |     0 |     0 |     - |  clique|   0 | 129 |  17k|  17k|   0 |  0 |   0 |   0 | 6.390998e+04 | 2.123498e+04 | 200.97%| unknown
p 0.6s|     1 |     0 |     0 |     - |   locks|   0 | 129 |  17k|  17k|   0 |  0 |   0 |   0 | 6.390998e+04 | 2.128298e+04 | 200.29%| unknown
i 0.6s|     1 |     0 |     2 |     - |  oneopt|   0 | 129 |  17k|  17k|   0 |  0 |   0 |   0 | 6.390998e+04 | 2.224398e+04 | 187.31%| unknown
  1.4s|     1 |     0 |  1330 |     - |   118M |   0 | 129 |  17k|  17k|   0 |  0 |   0 |   0 | 2.530983e+04 | 2.224398e+04 |  13.78%| unknown
  1.5s|     1 |     0 |  1510 |     - |   121M |   0 | 129 |  17k|  17k|   1 |  1 |   0 |   0 | 2.527323e+04 | 2.224398e+04 |  13.62%| unknown
  1.7s|     1 |     0 |  1636 |     - |   123M |   0 | 129 |  17k|  17k|   2 |  2 |   0 |   0 | 2.526032e+04 | 2.224398e+04 |  13.56%| unknown
  1.8s|     1 |     0 |  1793 |     - |   127M |   0 | 129 |  17k|  17k|   3 |  3 |   0 |   0 | 2.525276e+04 | 2.224398e+04 |  13.53%| unknown
  1.9s|     1 |     0 |  1934 |     - |   129M |   0 | 129 |  17k|  17k|   4 |  4 |   0 |   0 | 2.524670e+04 | 2.224398e+04 |  13.50%| unknown
  2.1s|     1 |     0 |  2092 |     - |   132M |   0 | 129 |  17k|  17k|   5 |  5 |   0 |   0 | 2.524276e+04 | 2.224398e+04 |  13.48%| unknown
  2.2s|     1 |     0 |  2335 |     - |   135M |   0 | 129 |  17k|  17k|   6 |  6 |   0 |   0 | 2.523766e+04 | 2.224398e+04 |  13.46%| unknown
  2.4s|     1 |     0 |  2510 |     - |   137M |   0 | 129 |  17k|  17k|   7 |  7 |   0 |   0 | 2.523511e+04 | 2.224398e+04 |  13.45%| unknown
  2.6s|     1 |     0 |  2703 |     - |   140M |   0 | 129 |  17k|  17k|   8 |  8 |   0 |   0 | 2.523238e+04 | 2.224398e+04 |  13.43%| unknown
  2.7s|     1 |     0 |  2905 |     - |   142M |   0 | 129 |  17k|  17k|   9 |  9 |   0 |   0 | 2.523035e+04 | 2.224398e+04 |  13.43%| unknown
  2.9s|     1 |     0 |  3037 |     - |   146M |   0 | 129 |  17k|  17k|  10 | 10 |   0 |   0 | 2.522975e+04 | 2.224398e+04 |  13.42%| unknown
 time | node  | left  |LP iter|LP it/n|mem/heur|mdpt |vars |cons |rows |cuts |sepa|confs|strbr|  dualbound   | primalbound  |  gap   | compl. 
  3.0s|     1 |     0 |  3236 |     - |   148M |   0 | 129 |  17k|  17k|  11 | 11 |   0 |   0 | 2.522830e+04 | 2.224398e+04 |  13.42%| unknown
  3.1s|     1 |     0 |  3307 |     - |   149M |   0 | 129 |  17k|  17k|  12 | 12 |   0 |   0 | 2.522801e+04 | 2.224398e+04 |  13.41%| unknown
  3.1s|     1 |     0 |  3363 |     - |   151M |   0 | 129 |  17k|  17k|  13 | 13 |   0 |   0 | 2.522781e+04 | 2.224398e+04 |  13.41%| unknown
  3.2s|     1 |     0 |  3394 |     - |   153M |   0 | 129 |  17k|  17k|  14 | 14 |   0 |   0 | 2.522776e+04 | 2.224398e+04 |  13.41%| unknown
  3.3s|     1 |     0 |  3431 |     - |   155M |   0 | 129 |  17k|  17k|  15 | 15 |   0 |   0 | 2.522768e+04 | 2.224398e+04 |  13.41%| unknown
  3.3s|     1 |     0 |  3473 |     - |   157M |   0 | 129 |  17k|  17k|  16 | 16 |   0 |   0 | 2.522764e+04 | 2.224398e+04 |  13.41%| unknown
  3.4s|     1 |     0 |  3502 |     - |   158M |   0 | 129 |  17k|  17k|  17 | 17 |   0 |   0 | 2.522759e+04 | 2.224398e+04 |  13.41%| unknown
  3.4s|     1 |     0 |  3535 |     - |   160M |   0 | 129 |  17k|  17k|  18 | 18 |   0 |   0 | 2.522752e+04 | 2.224398e+04 |  13.41%| unknown
  3.5s|     1 |     0 |  3575 |     - |   162M |   0 | 129 |  17k|  17k|  19 | 19 |   0 |   0 | 2.522744e+04 | 2.224398e+04 |  13.41%| unknown
  3.6s|     1 |     0 |  3599 |     - |   164M |   0 | 129 |  17k|  17k|  20 | 20 |   0 |   0 | 2.522739e+04 | 2.224398e+04 |  13.41%| unknown
  3.6s|     1 |     0 |  3626 |     - |   164M |   0 | 129 |  17k|  17k|  22 | 21 |   0 |   0 | 2.522734e+04 | 2.224398e+04 |  13.41%| unknown
d 4.1s|     1 |     0 |  4556 |     - |farkasdi|   0 | 129 |  17k|  17k|   0 | 21 |   0 |   0 | 2.522734e+04 | 2.234698e+04 |  12.89%| unknown
  4.2s|     1 |     0 |  4556 |     - |   164M |   0 | 129 |  17k|  17k|  22 | 21 |   0 |   0 | 2.522734e+04 | 2.234698e+04 |  12.89%| unknown
  4.3s|     1 |     0 |  4565 |     - |   164M |   0 | 129 |  17k|  17k|  23 | 22 |   0 |   0 | 2.522733e+04 | 2.234698e+04 |  12.89%| unknown
 18.9s|     1 |     2 |  4565 |     - |   164M |   0 | 129 |  17k|  17k|  23 | 23 |   0 |  26 | 2.515889e+04 | 2.234698e+04 |  12.58%| unknown
 time | node  | left  |LP iter|LP it/n|mem/heur|mdpt |vars |cons |rows |cuts |sepa|confs|strbr|  dualbound   | primalbound  |  gap   | compl. 
*23.1s|     3 |     2 |  5405 | 886.0 |strongbr|   2 | 129 |  17k|  17k|  23 |  1 |   0 |  50 | 2.515889e+04 | 2.298398e+04 |   9.46%| unknown
*23.2s|     3 |     2 |  5435 | 901.0 |    LP  |   2 | 129 |  17k|  17k|  23 |  2 |   0 |  52 | 2.515889e+04 | 2.301598e+04 |   9.31%| unknown
*24.6s|     4 |     1 |  5738 | 701.7 |strongbr|   2 | 129 |  17k|  17k|  23 |  2 |   3 |  66 | 2.515889e+04 | 2.303698e+04 |   9.21%|  13.81%
*48.5s|    10 |     1 |  8237 | 511.6 |strongbr|   3 | 129 |  17k|  17k|  23 |  1 |  16 | 170 | 2.491803e+04 | 2.315698e+04 |   7.60%|  43.54%

SCIP Status        : problem is solved [optimal solution found]
Solving Time (sec) : 68.58
Solving Nodes      : 15
Primal Bound       : +2.31569808642101e+04 (90 solutions)
Dual Bound         : +2.31569808642101e+04
Gap                : 0.00 %
Solve Status: optimal
Solve Time: 68.58 seconds
